
Gurobi 10.0.2 (win64) logging started Wed Jul 10 22:09:36 2024

Set parameter LogFile to value "MDVRP2.log"
Set parameter MIPGap to value 0
Gurobi Optimizer version 10.0.2 build v10.0.2rc0 (win64)

CPU model: Intel(R) Core(TM) i7-10875H CPU @ 2.30GHz, instruction set [SSE2|AVX|AVX2]
Thread count: 8 physical cores, 16 logical processors, using up to 16 threads

Optimize a model with 609 rows, 675 columns and 3588 nonzeros
Model fingerprint: 0xbf29bc2d
Variable types: 51 continuous, 624 integer (624 binary)
Coefficient statistics:
  Matrix range     [1e+00, 2e+02]
  Objective range  [7e+00, 6e+01]
  Bounds range     [1e+00, 8e+01]
  RHS range        [1e+00, 2e+02]
Presolve removed 40 rows and 12 columns
Presolve time: 0.02s
Presolved: 569 rows, 663 columns, 6870 nonzeros
Variable types: 39 continuous, 624 integer (624 binary)

Root relaxation: objective 1.760900e+02, 64 iterations, 0.00 seconds (0.00 work units)

    Nodes    |    Current Node    |     Objective Bounds      |     Work
 Expl Unexpl |  Obj  Depth IntInf | Incumbent    BestBd   Gap | It/Node Time

     0     0  176.09000    0   26          -  176.09000      -     -    0s
H    0     0                     430.0800000  176.09000  59.1%     -    0s
     0     0  179.24760    0   37  430.08000  179.24760  58.3%     -    0s
H    0     0                     406.3400000  179.31556  55.9%     -    0s
     0     0  179.31556    0   39  406.34000  179.31556  55.9%     -    0s
H    0     0                     284.2600000  179.31556  36.9%     -    0s
     0     0  195.35344    0   28  284.26000  195.35344  31.3%     -    0s
     0     0  198.39000    0   27  284.26000  198.39000  30.2%     -    0s
     0     0  198.39000    0   27  284.26000  198.39000  30.2%     -    0s
     0     0  198.39000    0   26  284.26000  198.39000  30.2%     -    0s
     0     0  198.39000    0   26  284.26000  198.39000  30.2%     -    0s
     0     0  198.39000    0   26  284.26000  198.39000  30.2%     -    0s
     0     0  198.39000    0   26  284.26000  198.39000  30.2%     -    0s
H    0     0                     283.6000000  198.39000  30.0%     -    0s
H    0     2                     278.4500000  198.39000  28.8%     -    0s
     0     2  198.39000    0   26  278.45000  198.39000  28.8%     -    0s
H   32    40                     274.3200000  198.39000  27.7%  35.5    0s
H  119   132                     269.8300000  198.39000  26.5%  18.2    0s
H  122   132                     267.8100000  198.39000  25.9%  17.9    0s
H 1639  1257                     261.9300000  207.36000  20.8%  12.5    4s
  5290  2474  230.75000   37   24  261.93000  208.94787  20.2%  14.8    5s
